# Solution for model count
# Objective value = 10
z#1 0
z#2 0
z#3 0
z#4 1
z#5 0
z#6 0
z#7 0
z#8 1
z#9 0
z#10 1
z#11 0
z#12 1
z#13 0
z#14 0
z#15 0
z#16 0
z#17 1
z#18 0
z#19 1
z#20 1
z#21 0
z#22 1
z#23 1
z#24 1
x#24 156
x#23 14
x#22 144
x#21 0
x#20 783
x#19 275
x#18 0
x#17 3715
x#16 0
x#15 0
x#14 0
x#13 0
x#12 81
x#11 0
x#10 2424
x#9 0
x#8 330
x#7 0
x#6 0
x#5 0
x#4 2078
x#3 0
x#2 0
x#1 0
